
n_res = 4;
rcap = [17, 20, 723, 779];
rtype = [1, 1, 2, 2];
n_tasks = 50;
modes =  [{1, 2, 3, 4, 5, 6, 7, 8, 9}, {10, 11, 12, 13, 14, 15, 16, 17, 18}, {19, 20, 21, 22, 23, 24, 25, 26, 27}, {28, 29, 30, 31, 32, 33, 34, 35, 36}, {37, 38, 39, 40, 41, 42, 43, 44, 45}, {46, 47, 48, 49, 50, 51, 52, 53, 54}, {55, 56, 57, 58, 59, 60, 61, 62, 63}, {64, 65, 66, 67, 68, 69, 70, 71, 72}, {73, 74, 75, 76, 77, 78, 79, 80, 81}, {82, 83, 84, 85, 86, 87, 88, 89, 90}, {91, 92, 93, 94, 95, 96, 97, 98, 99}, {100, 101, 102, 103, 104, 105, 106, 107, 108}, {109, 110, 111, 112, 113, 114, 115, 116, 117}, {118, 119, 120, 121, 122, 123, 124, 125, 126}, {127, 128, 129, 130, 131, 132, 133, 134, 135}, {136, 137, 138, 139, 140, 141, 142, 143, 144}, {145, 146, 147, 148, 149, 150, 151, 152, 153}, {154, 155, 156, 157, 158, 159, 160, 161, 162}, {163, 164, 165, 166, 167, 168, 169, 170, 171}, {172, 173, 174, 175, 176, 177, 178, 179, 180}, {181, 182, 183, 184, 185, 186, 187, 188, 189}, {190, 191, 192, 193, 194, 195, 196, 197, 198}, {199, 200, 201, 202, 203, 204, 205, 206, 207}, {208, 209, 210, 211, 212, 213, 214, 215, 216}, {217, 218, 219, 220, 221, 222, 223, 224, 225}, {226, 227, 228, 229, 230, 231, 232, 233, 234}, {235, 236, 237, 238, 239, 240, 241, 242, 243}, {244, 245, 246, 247, 248, 249, 250, 251, 252}, {253, 254, 255, 256, 257, 258, 259, 260, 261}, {262, 263, 264, 265, 266, 267, 268, 269, 270}, {271, 272, 273, 274, 275, 276, 277, 278, 279}, {280, 281, 282, 283, 284, 285, 286, 287, 288}, {289, 290, 291, 292, 293, 294, 295, 296, 297}, {298, 299, 300, 301, 302, 303, 304, 305, 306}, {307, 308, 309, 310, 311, 312, 313, 314, 315}, {316, 317, 318, 319, 320, 321, 322, 323, 324}, {325, 326, 327, 328, 329, 330, 331, 332, 333}, {334, 335, 336, 337, 338, 339, 340, 341, 342}, {343, 344, 345, 346, 347, 348, 349, 350, 351}, {352, 353, 354, 355, 356, 357, 358, 359, 360}, {361, 362, 363, 364, 365, 366, 367, 368, 369}, {370, 371, 372, 373, 374, 375, 376, 377, 378}, {379, 380, 381, 382, 383, 384, 385, 386, 387}, {388, 389, 390, 391, 392, 393, 394, 395, 396}, {397, 398, 399, 400, 401, 402, 403, 404, 405}, {406, 407, 408, 409, 410, 411, 412, 413, 414}, {415, 416, 417, 418, 419, 420, 421, 422, 423}, {424, 425, 426, 427, 428, 429, 430, 431, 432}, {433, 434, 435, 436, 437, 438, 439, 440, 441}, {442, 443, 444, 445, 446, 447, 448, 449, 450}];
succ =  [{10, 9, 8, 7, 5, 4}, {15, 14, 10, 6, 3}, {17, 13, 9, 8, 7}, {14, 13, 6}, {17, 15, 14, 13, 11}, {19, 17, 12}, {19, 12, 11}, {19, 16, 12}, {19, 12}, {11}, {26, 25, 23, 21, 18}, {26, 25, 23, 18}, {21, 20, 16}, {20, 16}, {23, 18}, {26, 24, 23, 22}, {26, 23, 22}, {24, 20}, {32, 21}, {34, 32, 30, 27, 22}, {30, 28, 27, 22}, {42, 39, 37, 36, 35, 31, 29}, {37, 35, 28, 27}, {39, 37, 36, 35, 31, 29}, {35, 32, 30, 29}, {40, 34, 32, 30}, {36, 29}, {39, 29}, {43, 40, 33}, {43, 36, 33}, {43, 40, 33}, {39, 33}, {50, 38}, {50, 38}, {50, 49, 48, 47, 45, 41}, {38}, {49, 48, 47, 46, 45, 43}, {49, 48, 47, 45, 41}, {48, 45, 43, 41}, {47, 45, 44}, {46, 44}, {45, 44}, {44}, {}, {}, {}, {}, {}, {}, {}];
n_opt = 450;
dur = [2, 5, 6, 14, 15, 20, 23, 26, 27, 12, 15, 16, 17, 18, 19, 20, 28, 29, 2, 3, 6, 7, 8, 9, 16, 18, 24, 2, 5, 6, 7, 12, 13, 20, 22, 28, 4, 5, 7, 8, 10, 18, 19, 22, 28, 3, 4, 5, 8, 20, 22, 26, 27, 30, 1, 8, 9, 12, 18, 20, 21, 25, 30, 1, 2, 4, 7, 9, 14, 15, 16, 18, 6, 7, 11, 12, 13, 21, 23, 27, 29, 5, 13, 18, 21, 22, 23, 24, 25, 28, 1, 3, 4, 6, 13, 15, 17, 19, 25, 7, 16, 17, 20, 22, 26, 27, 28, 29, 4, 11, 12, 20, 21, 24, 26, 27, 28, 2, 3, 6, 7, 11, 17, 21, 24, 25, 1, 5, 7, 8, 9, 14, 20, 24, 27, 7, 14, 17, 20, 21, 24, 25, 29, 30, 2, 5, 9, 12, 13, 14, 16, 19, 23, 9, 9, 10, 11, 12, 17, 18, 20, 29, 1, 5, 7, 9, 10, 13, 18, 19, 29, 1, 5, 9, 15, 17, 21, 23, 26, 29, 1, 2, 5, 10, 19, 21, 23, 25, 27, 3, 5, 14, 15, 22, 24, 27, 28, 30, 7, 11, 12, 14, 15, 18, 21, 22, 24, 2, 5, 6, 15, 16, 18, 19, 20, 29, 5, 8, 16, 17, 18, 19, 21, 29, 30, 1, 3, 8, 9, 10, 11, 12, 25, 26, 6, 7, 8, 12, 19, 21, 25, 26, 30, 1, 2, 13, 14, 17, 18, 26, 27, 28, 9, 14, 16, 22, 23, 25, 27, 28, 29, 3, 5, 7, 11, 12, 13, 22, 27, 28, 5, 6, 7, 18, 19, 24, 26, 29, 30, 6, 8, 14, 18, 19, 21, 23, 24, 29, 3, 4, 5, 8, 14, 17, 18, 23, 24, 1, 2, 4, 5, 9, 10, 14, 15, 23, 11, 14, 15, 17, 20, 22, 23, 25, 30, 1, 5, 7, 8, 9, 10, 18, 27, 29, 2, 8, 10, 18, 19, 21, 23, 26, 29, 4, 5, 7, 11, 13, 22, 24, 27, 28, 2, 4, 8, 15, 17, 18, 19, 23, 29, 1, 4, 5, 9, 10, 11, 13, 26, 29, 2, 7, 10, 14, 15, 17, 21, 22, 29, 12, 13, 14, 15, 17, 18, 23, 24, 26, 3, 4, 5, 16, 19, 20, 23, 25, 28, 5, 17, 18, 19, 20, 21, 22, 26, 29, 5, 7, 10, 14, 15, 16, 21, 22, 27, 2, 16, 19, 20, 22, 23, 25, 26, 27, 2, 4, 5, 9, 11, 17, 21, 24, 26, 3, 8, 10, 18, 19, 20, 21, 22, 27, 5, 7, 11, 14, 19, 20, 23, 25, 29, 2, 5, 10, 12, 13, 17, 22, 23, 29];
rreq = [|3, 3, 3, 3, 3, 2, 2, 2, 2, 3, 2, 2, 2, 2, 2, 2, 2, 2, 4, 4, 3, 3, 2, 2, 1, 1, 1, 4, 4, 4, 4, 3, 3, 3, 3, 3, 5, 4, 4, 4, 4, 4, 4, 4, 4, 3, 3, 3, 3, 2, 2, 2, 2, 2, 2, 2, 2, 2, 1, 1, 1, 1, 1, 4, 4, 4, 4, 3, 3, 3, 3, 3, 2, 2, 2, 2, 2, 2, 2, 2, 2, 4, 3, 3, 3, 2, 2, 2, 1, 1, 5, 4, 4, 4, 3, 3, 3, 3, 3, 3, 2, 2, 2, 1, 1, 1, 1, 1, 1, 1, 1, 1, 1, 1, 1, 1, 1, 4, 3, 3, 2, 2, 2, 1, 1, 1, 5, 4, 4, 4, 4, 4, 4, 4, 4, 4, 4, 3, 3, 2, 2, 1, 1, 1, 5, 4, 4, 4, 3, 3, 2, 2, 2, 2, 1, 1, 1, 1, 1, 1, 1, 1, 3, 3, 3, 3, 3, 3, 3, 3, 3, 5, 4, 4, 3, 2, 2, 2, 1, 1, 2, 2, 2, 2, 1, 1, 1, 1, 1, 3, 3, 3, 3, 3, 2, 2, 2, 2, 4, 3, 3, 3, 3, 2, 2, 2, 2, 3, 3, 3, 3, 3, 3, 3, 3, 3, 2, 2, 2, 2, 2, 2, 2, 2, 2, 1, 1, 1, 1, 1, 1, 1, 1, 1, 4, 3, 3, 3, 2, 2, 2, 2, 2, 3, 3, 3, 3, 3, 3, 3, 3, 3, 4, 3, 3, 2, 2, 2, 2, 1, 1, 3, 3, 3, 3, 2, 2, 2, 2, 2, 5, 4, 4, 4, 4, 4, 4, 4, 4, 4, 3, 3, 3, 3, 3, 3, 3, 3, 4, 4, 4, 4, 3, 3, 3, 3, 3, 4, 4, 4, 3, 3, 3, 2, 2, 2, 3, 3, 3, 3, 3, 2, 2, 2, 2, 3, 3, 3, 3, 3, 3, 3, 3, 3, 3, 3, 3, 3, 3, 3, 3, 3, 3, 5, 4, 4, 3, 3, 2, 1, 1, 1, 5, 5, 5, 5, 5, 5, 5, 5, 5, 5, 4, 4, 4, 3, 3, 3, 3, 3, 5, 4, 4, 4, 4, 4, 4, 4, 4, 1, 1, 1, 1, 1, 1, 1, 1, 1, 4, 4, 4, 4, 3, 3, 2, 2, 2, 4, 3, 3, 3, 2, 2, 2, 2, 2, 4, 4, 4, 4, 4, 4, 4, 4, 4, 3, 3, 3, 3, 2, 2, 2, 2, 2, 3, 3, 3, 3, 3, 3, 3, 3, 3, 1, 1, 1, 1, 1, 1, 1, 1, 1, 3, 3, 3, 3, 3, 3, 3, 3, 3, 2, 2, 2, 2, 2, 2, 2, 2, 2
 |1, 1, 1, 1, 1, 1, 1, 1, 1, 4, 4, 4, 4, 4, 4, 4, 4, 4, 1, 1, 1, 1, 1, 1, 1, 1, 1, 4, 4, 4, 4, 3, 3, 3, 2, 2, 1, 1, 1, 1, 1, 1, 1, 1, 1, 5, 5, 5, 5, 5, 5, 5, 5, 5, 5, 4, 4, 4, 4, 4, 4, 4, 4, 5, 4, 4, 3, 2, 2, 1, 1, 1, 4, 3, 3, 3, 2, 2, 2, 1, 1, 1, 1, 1, 1, 1, 1, 1, 1, 1, 3, 2, 2, 2, 2, 2, 2, 2, 2, 4, 4, 4, 4, 4, 4, 4, 4, 4, 5, 4, 4, 4, 4, 4, 4, 4, 4, 4, 4, 4, 4, 4, 4, 4, 4, 4, 3, 3, 3, 3, 3, 3, 3, 3, 3, 4, 3, 3, 3, 3, 3, 3, 3, 3, 5, 4, 4, 4, 3, 3, 3, 3, 3, 5, 5, 5, 5, 5, 5, 5, 5, 5, 2, 2, 2, 2, 2, 1, 1, 1, 1, 4, 4, 3, 3, 3, 2, 2, 1, 1, 2, 2, 2, 2, 1, 1, 1, 1, 1, 3, 3, 3, 2, 2, 2, 1, 1, 1, 2, 2, 2, 2, 2, 2, 2, 2, 2, 4, 3, 3, 3, 3, 3, 3, 3, 3, 5, 4, 4, 3, 3, 3, 2, 2, 2, 3, 2, 2, 2, 2, 1, 1, 1, 1, 4, 4, 4, 4, 4, 4, 4, 4, 4, 3, 3, 3, 3, 3, 2, 2, 2, 2, 1, 1, 1, 1, 1, 1, 1, 1, 1, 2, 2, 2, 2, 2, 2, 2, 2, 2, 4, 3, 3, 3, 2, 2, 2, 2, 2, 5, 4, 4, 4, 4, 4, 4, 4, 4, 1, 1, 1, 1, 1, 1, 1, 1, 1, 2, 2, 2, 2, 2, 2, 2, 2, 2, 4, 4, 4, 4, 3, 3, 3, 3, 3, 1, 1, 1, 1, 1, 1, 1, 1, 1, 5, 4, 4, 4, 3, 3, 3, 3, 3, 2, 2, 2, 2, 2, 2, 2, 2, 2, 4, 4, 4, 4, 4, 4, 4, 4, 4, 4, 3, 3, 2, 2, 2, 2, 1, 1, 4, 4, 3, 3, 2, 2, 1, 1, 1, 3, 3, 3, 3, 2, 2, 2, 2, 2, 4, 3, 3, 3, 2, 2, 1, 1, 1, 2, 1, 1, 1, 1, 1, 1, 1, 1, 4, 4, 4, 3, 3, 2, 2, 1, 1, 2, 2, 2, 2, 1, 1, 1, 1, 1, 4, 3, 3, 3, 3, 3, 3, 3, 3, 3, 3, 3, 3, 2, 2, 2, 2, 2, 4, 4, 4, 4, 4, 4, 4, 4, 4, 4, 4, 4, 4, 4, 4, 4, 4, 4
 |27, 25, 25, 22, 22, 20, 18, 17, 15, 7, 7, 7, 7, 7, 7, 7, 7, 7, 6, 5, 5, 5, 4, 3, 3, 2, 2, 22, 22, 22, 22, 21, 21, 21, 21, 21, 14, 13, 13, 13, 12, 12, 12, 11, 11, 8, 7, 5, 4, 4, 3, 2, 1, 1, 7, 6, 5, 4, 4, 3, 3, 2, 2, 24, 21, 20, 20, 18, 16, 13, 12, 10, 26, 26, 26, 25, 25, 25, 24, 24, 24, 26, 25, 24, 24, 22, 22, 20, 19, 19, 22, 20, 20, 19, 18, 17, 16, 15, 15, 26, 25, 22, 22, 18, 17, 15, 14, 12, 14, 11, 11, 9, 8, 7, 6, 5, 4, 7, 7, 7, 6, 5, 5, 5, 4, 4, 23, 22, 20, 20, 18, 18, 16, 15, 15, 17, 16, 16, 16, 15, 15, 15, 15, 15, 26, 25, 25, 25, 24, 24, 24, 23, 23, 19, 18, 18, 18, 18, 18, 18, 18, 18, 14, 13, 12, 9, 7, 6, 5, 3, 3, 25, 24, 23, 23, 22, 20, 20, 18, 18, 19, 17, 17, 15, 15, 13, 12, 12, 11, 19, 19, 19, 19, 18, 18, 17, 17, 17, 24, 24, 21, 21, 18, 18, 15, 14, 12, 25, 24, 22, 21, 19, 17, 16, 13, 12, 16, 15, 15, 13, 12, 11, 11, 10, 8, 20, 17, 17, 15, 13, 10, 7, 7, 3, 16, 14, 13, 13, 11, 9, 6, 6, 3, 18, 15, 13, 11, 11, 10, 7, 6, 5, 29, 28, 27, 26, 25, 25, 25, 23, 23, 9, 9, 9, 9, 8, 8, 7, 7, 7, 24, 21, 20, 18, 18, 16, 14, 12, 11, 10, 9, 9, 8, 7, 7, 6, 5, 4, 7, 7, 6, 6, 4, 4, 3, 2, 2, 12, 10, 9, 8, 7, 4, 4, 3, 2, 14, 12, 10, 9, 8, 7, 6, 5, 4, 21, 19, 17, 17, 13, 13, 12, 8, 7, 21, 21, 19, 19, 18, 15, 15, 14, 12, 23, 20, 18, 16, 14, 10, 8, 4, 2, 26, 22, 22, 17, 16, 12, 11, 9, 5, 21, 20, 19, 19, 19, 18, 17, 17, 17, 18, 16, 16, 15, 14, 13, 11, 11, 10, 29, 27, 27, 26, 25, 25, 25, 23, 23, 25, 24, 24, 24, 23, 23, 23, 23, 23, 5, 5, 5, 5, 5, 5, 5, 5, 5, 20, 18, 17, 13, 12, 10, 9, 6, 4, 21, 20, 20, 20, 20, 19, 19, 19, 19, 21, 18, 16, 14, 12, 10, 10, 7, 6, 14, 12, 9, 9, 8, 6, 3, 3, 2, 24, 23, 22, 18, 18, 15, 14, 11, 11, 15, 14, 13, 13, 13, 12, 12, 11, 11
 |22, 20, 17, 13, 11, 11, 7, 6, 1, 25, 23, 19, 18, 16, 14, 10, 5, 4, 26, 24, 24, 20, 19, 19, 16, 15, 13, 15, 14, 13, 12, 10, 9, 8, 8, 6, 7, 6, 5, 4, 5, 4, 3, 5, 4, 24, 21, 18, 15, 15, 12, 10, 4, 3, 23, 21, 18, 18, 15, 13, 12, 11, 9, 27, 25, 25, 22, 19, 18, 15, 14, 12, 20, 20, 18, 17, 15, 13, 11, 10, 9, 26, 25, 22, 19, 19, 15, 15, 12, 8, 18, 17, 15, 14, 13, 11, 11, 8, 7, 3, 2, 2, 1, 1, 1, 1, 1, 1, 28, 27, 25, 22, 21, 19, 17, 16, 13, 18, 18, 15, 14, 10, 9, 7, 4, 3, 24, 20, 20, 15, 14, 11, 9, 6, 2, 29, 27, 25, 23, 19, 18, 13, 12, 11, 19, 17, 15, 14, 9, 8, 7, 5, 1, 21, 22, 21, 20, 19, 18, 17, 16, 15, 2, 2, 2, 2, 2, 2, 2, 2, 1, 20, 20, 20, 20, 20, 20, 19, 20, 19, 23, 21, 20, 19, 19, 18, 17, 16, 16, 10, 9, 8, 9, 9, 8, 8, 7, 6, 5, 5, 5, 4, 5, 5, 5, 5, 5, 24, 24, 24, 24, 24, 24, 24, 24, 24, 30, 28, 27, 27, 26, 26, 24, 23, 23, 21, 20, 19, 19, 18, 18, 17, 15, 15, 26, 26, 26, 25, 26, 26, 27, 26, 26, 24, 22, 22, 21, 20, 19, 18, 17, 16, 24, 20, 17, 17, 12, 10, 7, 6, 5, 29, 28, 27, 26, 29, 28, 29, 28, 27, 16, 15, 13, 10, 8, 8, 6, 3, 2, 9, 8, 7, 7, 6, 5, 4, 4, 3, 23, 21, 19, 17, 16, 15, 14, 12, 11, 26, 25, 24, 23, 21, 20, 19, 19, 17, 20, 17, 16, 16, 13, 13, 11, 11, 9, 22, 21, 20, 19, 17, 16, 15, 14, 13, 13, 12, 12, 11, 10, 10, 9, 8, 8, 23, 22, 21, 17, 16, 13, 10, 9, 6, 9, 7, 6, 7, 6, 6, 5, 5, 4, 22, 22, 22, 22, 22, 22, 22, 22, 21, 21, 20, 17, 15, 14, 13, 11, 9, 7, 10, 9, 8, 9, 8, 7, 6, 5, 4, 28, 26, 25, 24, 23, 22, 20, 18, 17, 30, 28, 27, 26, 26, 25, 24, 23, 21, 26, 24, 21, 19, 18, 14, 12, 12, 10, 22, 21, 20, 19, 18, 17, 16, 15, 14, 18, 18, 17, 16, 15, 15, 14, 13, 13, 20, 20, 18, 17, 16, 15, 14, 13, 12, 30, 29, 27, 27, 26, 25, 24, 24, 23, 19, 18, 17, 13, 12, 11, 10, 8, 5|];